c generated by Julia
p edge 29 203
e 1 2
e 1 3
e 2 3
e 1 4
e 2 4
e 1 5
e 2 5
e 1 6
e 2 6
e 5 6
e 1 7
e 2 7
e 6 7
e 1 8
e 2 8
e 3 8
e 4 8
e 7 8
e 1 9
e 3 9
e 6 9
e 1 10
e 4 10
e 5 10
e 9 10
e 1 11
e 3 11
e 7 11
e 9 11
e 10 11
e 1 12
e 4 12
e 6 12
e 7 12
e 9 12
e 11 12
e 1 13
e 4 13
e 5 13
e 7 13
e 10 13
e 12 13
e 1 14
e 3 14
e 4 14
e 5 14
e 8 14
e 11 14
e 13 14
e 1 15
e 3 15
e 5 15
e 6 15
e 8 15
e 9 15
e 10 15
e 2 16
e 4 16
e 8 16
e 9 16
e 10 16
e 11 16
e 12 16
e 2 17
e 3 17
e 5 17
e 9 17
e 11 17
e 13 17
e 14 17
e 16 17
e 2 18
e 4 18
e 5 18
e 6 18
e 9 18
e 10 18
e 14 18
e 16 18
e 2 19
e 3 19
e 5 19
e 7 19
e 9 19
e 12 19
e 13 19
e 17 19
e 18 19
e 2 20
e 3 20
e 4 20
e 7 20
e 10 20
e 11 20
e 15 20
e 18 20
e 19 20
e 2 21
e 3 21
e 4 21
e 6 21
e 12 21
e 13 21
e 15 21
e 16 21
e 17 21
e 20 21
e 2 22
e 5 22
e 6 22
e 7 22
e 8 22
e 10 22
e 11 22
e 16 22
e 17 22
e 3 23
e 5 23
e 8 23
e 10 23
e 12 23
e 13 23
e 15 23
e 16 23
e 19 23
e 21 23
e 22 23
e 4 24
e 5 24
e 6 24
e 11 24
e 12 24
e 14 24
e 15 24
e 17 24
e 20 24
e 21 24
e 22 24
e 4 25
e 7 25
e 8 25
e 9 25
e 10 25
e 13 25
e 15 25
e 17 25
e 19 25
e 20 25
e 22 25
e 24 25
e 3 26
e 6 26
e 7 26
e 10 26
e 11 26
e 13 26
e 14 26
e 18 26
e 20 26
e 21 26
e 22 26
e 23 26
e 6 27
e 7 27
e 8 27
e 9 27
e 13 27
e 14 27
e 15 27
e 16 27
e 17 27
e 18 27
e 21 27
e 25 27
e 26 27
e 5 28
e 7 28
e 8 28
e 11 28
e 12 28
e 14 28
e 15 28
e 16 28
e 18 28
e 19 28
e 20 28
e 23 28
e 24 28
e 27 28
e 3 29
e 4 29
e 6 29
e 8 29
e 9 29
e 12 29
e 14 29
e 18 29
e 19 29
e 22 29
e 23 29
e 24 29
e 25 29
e 26 29
